\ Generated by MPModelProtoExporter
\   Name             : 
\   Format           : Free
\   Constraints      : 160
\   Variables        : 80
\     Binary         : 80
\     Integer        : 0
\     Continuous     : 0
Minimize
 Obj: +90 x[0,0] +76 x[0,1] +75 x[0,2] +70 x[0,3] +50 x[0,4] +74 x[0,5] +12 x[0,6] +68 x[0,7] +35 x[1,0] +85 x[1,1] +55 x[1,2] +65 x[1,3] +48 x[1,4] +101 x[1,5] +70 x[1,6] +83 x[1,7] +125 x[2,0] +95 x[2,1] +90 x[2,2] +105 x[2,3] +59 x[2,4] +120 x[2,5] +36 x[2,6] +73 x[2,7] +45 x[3,0] +110 x[3,1] +95 x[3,2] +115 x[3,3] +104 x[3,4] +83 x[3,5] +37 x[3,6] +71 x[3,7] +60 x[4,0] +105 x[4,1] +80 x[4,2] +75 x[4,3] +59 x[4,4] +62 x[4,5] +93 x[4,6] +88 x[4,7] +45 x[5,0] +65 x[5,1] +110 x[5,2] +95 x[5,3] +47 x[5,4] +31 x[5,5] +81 x[5,6] +34 x[5,7] +38 x[6,0] +51 x[6,1] +107 x[6,2] +41 x[6,3] +69 x[6,4] +99 x[6,5] +115 x[6,6] +48 x[6,7] +47 x[7,0] +85 x[7,1] +57 x[7,2] +71 x[7,3] +92 x[7,4] +77 x[7,5] +109 x[7,6] +36 x[7,7] +39 x[8,0] +63 x[8,1] +97 x[8,2] +49 x[8,3] +118 x[8,4] +56 x[8,5] +92 x[8,6] +61 x[8,7] +47 x[9,0] +101 x[9,1] +71 x[9,2] +60 x[9,3] +88 x[9,4] +109 x[9,5] +52 x[9,6] +90 x[9,7] 
Subject to
 auto_c_000000000: +1 x[0,0]  <= 15
 auto_c_000000001: +1 x[0,1]  <= 15
 auto_c_000000002: +1 x[0,2]  <= 15
 auto_c_000000003: +1 x[0,3]  <= 15
 auto_c_000000004: +1 x[0,4]  <= 15
 auto_c_000000005: +1 x[0,5]  <= 15
 auto_c_000000006: +1 x[0,6]  <= 15
 auto_c_000000007: +1 x[0,7]  <= 15
 auto_c_000000008: +1 x[1,0]  <= 15
 auto_c_000000009: +1 x[1,1]  <= 15
 auto_c_000000010: +1 x[1,2]  <= 15
 auto_c_000000011: +1 x[1,3]  <= 15
 auto_c_000000012: +1 x[1,4]  <= 15
 auto_c_000000013: +1 x[1,5]  <= 15
 auto_c_000000014: +1 x[1,6]  <= 15
 auto_c_000000015: +1 x[1,7]  <= 15
 auto_c_000000016: +1 x[2,0]  <= 15
 auto_c_000000017: +1 x[2,1]  <= 15
 auto_c_000000018: +1 x[2,2]  <= 15
 auto_c_000000019: +1 x[2,3]  <= 15
 auto_c_000000020: +1 x[2,4]  <= 15
 auto_c_000000021: +1 x[2,5]  <= 15
 auto_c_000000022: +1 x[2,6]  <= 15
 auto_c_000000023: +1 x[2,7]  <= 15
 auto_c_000000024: +1 x[3,0]  <= 15
 auto_c_000000025: +1 x[3,1]  <= 15
 auto_c_000000026: +1 x[3,2]  <= 15
 auto_c_000000027: +1 x[3,3]  <= 15
 auto_c_000000028: +1 x[3,4]  <= 15
 auto_c_000000029: +1 x[3,5]  <= 15
 auto_c_000000030: +1 x[3,6]  <= 15
 auto_c_000000031: +1 x[3,7]  <= 15
 auto_c_000000032: +1 x[4,0]  <= 15
 auto_c_000000033: +1 x[4,1]  <= 15
 auto_c_000000034: +1 x[4,2]  <= 15
 auto_c_000000035: +1 x[4,3]  <= 15
 auto_c_000000036: +1 x[4,4]  <= 15
 auto_c_000000037: +1 x[4,5]  <= 15
 auto_c_000000038: +1 x[4,6]  <= 15
 auto_c_000000039: +1 x[4,7]  <= 15
 auto_c_000000040: +1 x[5,0]  <= 15
 auto_c_000000041: +1 x[5,1]  <= 15
 auto_c_000000042: +1 x[5,2]  <= 15
 auto_c_000000043: +1 x[5,3]  <= 15
 auto_c_000000044: +1 x[5,4]  <= 15
 auto_c_000000045: +1 x[5,5]  <= 15
 auto_c_000000046: +1 x[5,6]  <= 15
 auto_c_000000047: +1 x[5,7]  <= 15
 auto_c_000000048: +1 x[6,0]  <= 15
 auto_c_000000049: +1 x[6,1]  <= 15
 auto_c_000000050: +1 x[6,2]  <= 15
 auto_c_000000051: +1 x[6,3]  <= 15
 auto_c_000000052: +1 x[6,4]  <= 15
 auto_c_000000053: +1 x[6,5]  <= 15
 auto_c_000000054: +1 x[6,6]  <= 15
 auto_c_000000055: +1 x[6,7]  <= 15
 auto_c_000000056: +1 x[7,0]  <= 15
 auto_c_000000057: +1 x[7,1]  <= 15
 auto_c_000000058: +1 x[7,2]  <= 15
 auto_c_000000059: +1 x[7,3]  <= 15
 auto_c_000000060: +1 x[7,4]  <= 15
 auto_c_000000061: +1 x[7,5]  <= 15
 auto_c_000000062: +1 x[7,6]  <= 15
 auto_c_000000063: +1 x[7,7]  <= 15
 auto_c_000000064: +1 x[8,0]  <= 15
 auto_c_000000065: +1 x[8,1]  <= 15
 auto_c_000000066: +1 x[8,2]  <= 15
 auto_c_000000067: +1 x[8,3]  <= 15
 auto_c_000000068: +1 x[8,4]  <= 15
 auto_c_000000069: +1 x[8,5]  <= 15
 auto_c_000000070: +1 x[8,6]  <= 15
 auto_c_000000071: +1 x[8,7]  <= 15
 auto_c_000000072: +1 x[9,0]  <= 15
 auto_c_000000073: +1 x[9,1]  <= 15
 auto_c_000000074: +1 x[9,2]  <= 15
 auto_c_000000075: +1 x[9,3]  <= 15
 auto_c_000000076: +1 x[9,4]  <= 15
 auto_c_000000077: +1 x[9,5]  <= 15
 auto_c_000000078: +1 x[9,6]  <= 15
 auto_c_000000079: +1 x[9,7]  <= 15
 auto_c_000000080: +1 x[0,0]  = 1
 auto_c_000000081: +1 x[1,0]  = 1
 auto_c_000000082: +1 x[2,0]  = 1
 auto_c_000000083: +1 x[3,0]  = 1
 auto_c_000000084: +1 x[4,0]  = 1
 auto_c_000000085: +1 x[5,0]  = 1
 auto_c_000000086: +1 x[6,0]  = 1
 auto_c_000000087: +1 x[7,0]  = 1
 auto_c_000000088: +1 x[8,0]  = 1
 auto_c_000000089: +1 x[9,0]  = 1
 auto_c_000000090: +1 x[0,1]  = 1
 auto_c_000000091: +1 x[1,1]  = 1
 auto_c_000000092: +1 x[2,1]  = 1
 auto_c_000000093: +1 x[3,1]  = 1
 auto_c_000000094: +1 x[4,1]  = 1
 auto_c_000000095: +1 x[5,1]  = 1
 auto_c_000000096: +1 x[6,1]  = 1
 auto_c_000000097: +1 x[7,1]  = 1
 auto_c_000000098: +1 x[8,1]  = 1
 auto_c_000000099: +1 x[9,1]  = 1
 auto_c_000000100: +1 x[0,2]  = 1
 auto_c_000000101: +1 x[1,2]  = 1
 auto_c_000000102: +1 x[2,2]  = 1
 auto_c_000000103: +1 x[3,2]  = 1
 auto_c_000000104: +1 x[4,2]  = 1
 auto_c_000000105: +1 x[5,2]  = 1
 auto_c_000000106: +1 x[6,2]  = 1
 auto_c_000000107: +1 x[7,2]  = 1
 auto_c_000000108: +1 x[8,2]  = 1
 auto_c_000000109: +1 x[9,2]  = 1
 auto_c_000000110: +1 x[0,3]  = 1
 auto_c_000000111: +1 x[1,3]  = 1
 auto_c_000000112: +1 x[2,3]  = 1
 auto_c_000000113: +1 x[3,3]  = 1
 auto_c_000000114: +1 x[4,3]  = 1
 auto_c_000000115: +1 x[5,3]  = 1
 auto_c_000000116: +1 x[6,3]  = 1
 auto_c_000000117: +1 x[7,3]  = 1
 auto_c_000000118: +1 x[8,3]  = 1
 auto_c_000000119: +1 x[9,3]  = 1
 auto_c_000000120: +1 x[0,4]  = 1
 auto_c_000000121: +1 x[1,4]  = 1
 auto_c_000000122: +1 x[2,4]  = 1
 auto_c_000000123: +1 x[3,4]  = 1
 auto_c_000000124: +1 x[4,4]  = 1
 auto_c_000000125: +1 x[5,4]  = 1
 auto_c_000000126: +1 x[6,4]  = 1
 auto_c_000000127: +1 x[7,4]  = 1
 auto_c_000000128: +1 x[8,4]  = 1
 auto_c_000000129: +1 x[9,4]  = 1
 auto_c_000000130: +1 x[0,5]  = 1
 auto_c_000000131: +1 x[1,5]  = 1
 auto_c_000000132: +1 x[2,5]  = 1
 auto_c_000000133: +1 x[3,5]  = 1
 auto_c_000000134: +1 x[4,5]  = 1
 auto_c_000000135: +1 x[5,5]  = 1
 auto_c_000000136: +1 x[6,5]  = 1
 auto_c_000000137: +1 x[7,5]  = 1
 auto_c_000000138: +1 x[8,5]  = 1
 auto_c_000000139: +1 x[9,5]  = 1
 auto_c_000000140: +1 x[0,6]  = 1
 auto_c_000000141: +1 x[1,6]  = 1
 auto_c_000000142: +1 x[2,6]  = 1
 auto_c_000000143: +1 x[3,6]  = 1
 auto_c_000000144: +1 x[4,6]  = 1
 auto_c_000000145: +1 x[5,6]  = 1
 auto_c_000000146: +1 x[6,6]  = 1
 auto_c_000000147: +1 x[7,6]  = 1
 auto_c_000000148: +1 x[8,6]  = 1
 auto_c_000000149: +1 x[9,6]  = 1
 auto_c_000000150: +1 x[0,7]  = 1
 auto_c_000000151: +1 x[1,7]  = 1
 auto_c_000000152: +1 x[2,7]  = 1
 auto_c_000000153: +1 x[3,7]  = 1
 auto_c_000000154: +1 x[4,7]  = 1
 auto_c_000000155: +1 x[5,7]  = 1
 auto_c_000000156: +1 x[6,7]  = 1
 auto_c_000000157: +1 x[7,7]  = 1
 auto_c_000000158: +1 x[8,7]  = 1
 auto_c_000000159: +1 x[9,7]  = 1
Bounds
 0 <= x[0,0] <= 1
 0 <= x[0,1] <= 1
 0 <= x[0,2] <= 1
 0 <= x[0,3] <= 1
 0 <= x[0,4] <= 1
 0 <= x[0,5] <= 1
 0 <= x[0,6] <= 1
 0 <= x[0,7] <= 1
 0 <= x[1,0] <= 1
 0 <= x[1,1] <= 1
 0 <= x[1,2] <= 1
 0 <= x[1,3] <= 1
 0 <= x[1,4] <= 1
 0 <= x[1,5] <= 1
 0 <= x[1,6] <= 1
 0 <= x[1,7] <= 1
 0 <= x[2,0] <= 1
 0 <= x[2,1] <= 1
 0 <= x[2,2] <= 1
 0 <= x[2,3] <= 1
 0 <= x[2,4] <= 1
 0 <= x[2,5] <= 1
 0 <= x[2,6] <= 1
 0 <= x[2,7] <= 1
 0 <= x[3,0] <= 1
 0 <= x[3,1] <= 1
 0 <= x[3,2] <= 1
 0 <= x[3,3] <= 1
 0 <= x[3,4] <= 1
 0 <= x[3,5] <= 1
 0 <= x[3,6] <= 1
 0 <= x[3,7] <= 1
 0 <= x[4,0] <= 1
 0 <= x[4,1] <= 1
 0 <= x[4,2] <= 1
 0 <= x[4,3] <= 1
 0 <= x[4,4] <= 1
 0 <= x[4,5] <= 1
 0 <= x[4,6] <= 1
 0 <= x[4,7] <= 1
 0 <= x[5,0] <= 1
 0 <= x[5,1] <= 1
 0 <= x[5,2] <= 1
 0 <= x[5,3] <= 1
 0 <= x[5,4] <= 1
 0 <= x[5,5] <= 1
 0 <= x[5,6] <= 1
 0 <= x[5,7] <= 1
 0 <= x[6,0] <= 1
 0 <= x[6,1] <= 1
 0 <= x[6,2] <= 1
 0 <= x[6,3] <= 1
 0 <= x[6,4] <= 1
 0 <= x[6,5] <= 1
 0 <= x[6,6] <= 1
 0 <= x[6,7] <= 1
 0 <= x[7,0] <= 1
 0 <= x[7,1] <= 1
 0 <= x[7,2] <= 1
 0 <= x[7,3] <= 1
 0 <= x[7,4] <= 1
 0 <= x[7,5] <= 1
 0 <= x[7,6] <= 1
 0 <= x[7,7] <= 1
 0 <= x[8,0] <= 1
 0 <= x[8,1] <= 1
 0 <= x[8,2] <= 1
 0 <= x[8,3] <= 1
 0 <= x[8,4] <= 1
 0 <= x[8,5] <= 1
 0 <= x[8,6] <= 1
 0 <= x[8,7] <= 1
 0 <= x[9,0] <= 1
 0 <= x[9,1] <= 1
 0 <= x[9,2] <= 1
 0 <= x[9,3] <= 1
 0 <= x[9,4] <= 1
 0 <= x[9,5] <= 1
 0 <= x[9,6] <= 1
 0 <= x[9,7] <= 1
Binaries
 x[0,0]
 x[0,1]
 x[0,2]
 x[0,3]
 x[0,4]
 x[0,5]
 x[0,6]
 x[0,7]
 x[1,0]
 x[1,1]
 x[1,2]
 x[1,3]
 x[1,4]
 x[1,5]
 x[1,6]
 x[1,7]
 x[2,0]
 x[2,1]
 x[2,2]
 x[2,3]
 x[2,4]
 x[2,5]
 x[2,6]
 x[2,7]
 x[3,0]
 x[3,1]
 x[3,2]
 x[3,3]
 x[3,4]
 x[3,5]
 x[3,6]
 x[3,7]
 x[4,0]
 x[4,1]
 x[4,2]
 x[4,3]
 x[4,4]
 x[4,5]
 x[4,6]
 x[4,7]
 x[5,0]
 x[5,1]
 x[5,2]
 x[5,3]
 x[5,4]
 x[5,5]
 x[5,6]
 x[5,7]
 x[6,0]
 x[6,1]
 x[6,2]
 x[6,3]
 x[6,4]
 x[6,5]
 x[6,6]
 x[6,7]
 x[7,0]
 x[7,1]
 x[7,2]
 x[7,3]
 x[7,4]
 x[7,5]
 x[7,6]
 x[7,7]
 x[8,0]
 x[8,1]
 x[8,2]
 x[8,3]
 x[8,4]
 x[8,5]
 x[8,6]
 x[8,7]
 x[9,0]
 x[9,1]
 x[9,2]
 x[9,3]
 x[9,4]
 x[9,5]
 x[9,6]
 x[9,7]
End
